sat-competition-2018/bijection/benchmarks/cms-scheel-sha3-bijection-w1-rc.cnf
c This is a CNF SAT formula in the DIMACS CNF format,
c produced with the bc2cnf translator by Tommi Junttila;
c see http://users.ics.aalto.fi/tjunttil/circuits/index.html
c cbijection <-> 1
c csurout <-> 4
c cinout <-> 5
c cinin <-> 31
c csurin <-> 32
c h2out24 <-> 58
c h2r0c24 <-> 58
c h2out23 <-> 61
c h2r0c23 <-> 61
c h2out22 <-> 64
c h2r0c22 <-> 64
c h2in24 <-> 66
c h2out21 <-> 68
c h2r0c21 <-> 68
c h2in23 <-> 70
c h2out20 <-> 72
c h2r0c20 <-> 72
c h2in22 <-> 74
c h2in21 <-> 76
c h2in20 <-> 77
c h2out19 <-> 78
c h2r0c19 <-> 78
c h2out18 <-> 81
c h2r0c18 <-> 81
c h2out17 <-> 84
c h2r0c17 <-> 84
c h2in19 <-> 86
c h2out16 <-> 88
c h2r0c16 <-> 88
c h2in18 <-> 90
c h2out15 <-> 92
c h2r0c15 <-> 92
c h2in17 <-> 94
c h2in16 <-> 96
c h2in15 <-> 97
c h2out14 <-> 98
c h2r0c14 <-> 98
c h2out13 <-> 101
c h2r0c13 <-> 101
c h2out12 <-> 104
c h2r0c12 <-> 104
c h2in14 <-> 106
c h2out11 <-> 108
c h2r0c11 <-> 108
c h2in13 <-> 110
c h2out10 <-> 112
c h2r0c10 <-> 112
c h2in12 <-> 114
c h2in11 <-> 116
c h2in10 <-> 117
c h2out9 <-> 118
c h2r0c9 <-> 118
c h2out8 <-> 121
c h2r0c8 <-> 121
c h2out7 <-> 124
c h2r0c7 <-> 124
c h2in9 <-> 126
c h2out6 <-> 128
c h2r0c6 <-> 128
c h2in8 <-> 130
c h2out5 <-> 132
c h2r0c5 <-> 132
c h2in7 <-> 134
c h2in6 <-> 136
c h2in5 <-> 137
c h2out4 <-> 138
c h2r0c4 <-> 138
c h2out3 <-> 141
c h2r0c3 <-> 141
c h2out2 <-> 144
c h2r0c2 <-> 144
c h2in4 <-> 146
c h2out1 <-> 148
c h2r0c1 <-> 148
c h2in3 <-> 150
c h2out0 <-> 152
c h2r0c0 <-> 152
c h2in2 <-> 154
c h2in1 <-> 156
c h2in0 <-> 157
c h1out24 <-> 158
c h1r0c24 <-> 158
c h1out23 <-> 161
c h1r0c23 <-> 161
c h1out22 <-> 164
c h1r0c22 <-> 164
c h1in24 <-> 166
c h1out21 <-> 168
c h1r0c21 <-> 168
c h1in23 <-> 170
c h1out20 <-> 172
c h1r0c20 <-> 172
c h1in22 <-> 174
c h1in21 <-> 176
c h1in20 <-> 177
c h1out19 <-> 178
c h1r0c19 <-> 178
c h1out18 <-> 181
c h1r0c18 <-> 181
c h1out17 <-> 184
c h1r0c17 <-> 184
c h1in19 <-> 186
c h1out16 <-> 188
c h1r0c16 <-> 188
c h1in18 <-> 190
c h1out15 <-> 192
c h1r0c15 <-> 192
c h1in17 <-> 194
c h1in16 <-> 196
c h1in15 <-> 197
c h1out14 <-> 198
c h1r0c14 <-> 198
c h1out13 <-> 201
c h1r0c13 <-> 201
c h1out12 <-> 204
c h1r0c12 <-> 204
c h1in14 <-> 206
c h1out11 <-> 208
c h1r0c11 <-> 208
c h1in13 <-> 210
c h1out10 <-> 212
c h1r0c10 <-> 212
c h1in12 <-> 214
c h1in11 <-> 216
c h1in10 <-> 217
c h1out9 <-> 218
c h1r0c9 <-> 218
c h1out8 <-> 221
c h1r0c8 <-> 221
c h1out7 <-> 224
c h1r0c7 <-> 224
c h1in9 <-> 226
c h1out6 <-> 228
c h1r0c6 <-> 228
c h1in8 <-> 230
c h1out5 <-> 232
c h1r0c5 <-> 232
c h1in7 <-> 234
c h1in6 <-> 236
c h1in5 <-> 237
c h1out4 <-> 238
c h1r0c4 <-> 238
c h1out3 <-> 241
c h1r0c3 <-> 241
c h1out2 <-> 244
c h1r0c2 <-> 244
c h1in4 <-> 246
c h1out1 <-> 248
c h1r0c1 <-> 248
c h1in3 <-> 250
c h1out0 <-> 252
c h1r0c0 <-> 252
c h1in2 <-> 254
c h1in1 <-> 256
c h1in0 <-> 257
p cnf 257 716
1 -2 0
1 -3 0
-1 3 2 0
1 0
-2 4 0
-2 32 0
2 -32 -4 0
-3 5 0
-3 31 0
3 -31 -5 0
4 5 0
-4 -5 0
-5 6 0
-5 7 0
-5 8 0
-5 9 0
-5 10 0
-5 11 0
-5 12 0
-5 13 0
-5 14 0
-5 15 0
-5 16 0
-5 17 0
-5 18 0
-5 19 0
-5 20 0
-5 21 0
-5 22 0
-5 23 0
-5 24 0
-5 25 0
-5 26 0
-5 27 0
-5 28 0
-5 29 0
-5 30 0
5 -30 -29 -28 -27 -26 -25 -24 -23 -22 -21 -20 -19 -18 -17 -16 -15 -14 -13 -12 -11 -10 -9 -8 -7 -6 0
6 158 58 0
6 -158 -58 0
-6 158 -58 0
-6 -158 58 0
7 161 61 0
7 -161 -61 0
-7 161 -61 0
-7 -161 61 0
8 164 64 0
8 -164 -64 0
-8 164 -64 0
-8 -164 64 0
9 168 68 0
9 -168 -68 0
-9 168 -68 0
-9 -168 68 0
10 172 72 0
10 -172 -72 0
-10 172 -72 0
-10 -172 72 0
11 178 78 0
11 -178 -78 0
-11 178 -78 0
-11 -178 78 0
12 181 81 0
12 -181 -81 0
-12 181 -81 0
-12 -181 81 0
13 184 84 0
13 -184 -84 0
-13 184 -84 0
-13 -184 84 0
14 188 88 0
14 -188 -88 0
-14 188 -88 0
-14 -188 88 0
15 192 92 0
15 -192 -92 0
-15 192 -92 0
-15 -192 92 0
16 198 98 0
16 -198 -98 0
-16 198 -98 0
-16 -198 98 0
17 201 101 0
17 -201 -101 0
-17 201 -101 0
-17 -201 101 0
18 204 104 0
18 -204 -104 0
-18 204 -104 0
-18 -204 104 0
19 208 108 0
19 -208 -108 0
-19 208 -108 0
-19 -208 108 0
20 212 112 0
20 -212 -112 0
-20 212 -112 0
-20 -212 112 0
21 218 118 0
21 -218 -118 0
-21 218 -118 0
-21 -218 118 0
22 221 121 0
22 -221 -121 0
-22 221 -121 0
-22 -221 121 0
23 224 124 0
23 -224 -124 0
-23 224 -124 0
-23 -224 124 0
24 228 128 0
24 -228 -128 0
-24 228 -128 0
-24 -228 128 0
25 232 132 0
25 -232 -132 0
-25 232 -132 0
-25 -232 132 0
26 238 138 0
26 -238 -138 0
-26 238 -138 0
-26 -238 138 0
27 241 141 0
27 -241 -141 0
-27 241 -141 0
-27 -241 141 0
28 244 144 0
28 -244 -144 0
-28 244 -144 0
-28 -244 144 0
29 248 148 0
29 -248 -148 0
-29 248 -148 0
-29 -248 148 0
30 252 152 0
30 -252 -152 0
-30 252 -152 0
-30 -252 152 0
31 32 0
-31 -32 0
-32 33 0
-32 34 0
-32 35 0
-32 36 0
-32 37 0
-32 38 0
-32 39 0
-32 40 0
-32 41 0
-32 42 0
-32 43 0
-32 44 0
-32 45 0
-32 46 0
-32 47 0
-32 48 0
-32 49 0
-32 50 0
-32 51 0
-32 52 0
-32 53 0
-32 54 0
-32 55 0
-32 56 0
-32 57 0
32 -57 -56 -55 -54 -53 -52 -51 -50 -49 -48 -47 -46 -45 -44 -43 -42 -41 -40 -39 -38 -37 -36 -35 -34 -33 0
33 166 66 0
33 -166 -66 0
-33 166 -66 0
-33 -166 66 0
34 170 70 0
34 -170 -70 0
-34 170 -70 0
-34 -170 70 0
35 174 74 0
35 -174 -74 0
-35 174 -74 0
-35 -174 74 0
36 176 76 0
36 -176 -76 0
-36 176 -76 0
-36 -176 76 0
37 177 77 0
37 -177 -77 0
-37 177 -77 0
-37 -177 77 0
38 186 86 0
38 -186 -86 0
-38 186 -86 0
-38 -186 86 0
39 190 90 0
39 -190 -90 0
-39 190 -90 0
-39 -190 90 0
40 194 94 0
40 -194 -94 0
-40 194 -94 0
-40 -194 94 0
41 196 96 0
41 -196 -96 0
-41 196 -96 0
-41 -196 96 0
42 197 97 0
42 -197 -97 0
-42 197 -97 0
-42 -197 97 0
43 206 106 0
43 -206 -106 0
-43 206 -106 0
-43 -206 106 0
44 210 110 0
44 -210 -110 0
-44 210 -110 0
-44 -210 110 0
45 214 114 0
45 -214 -114 0
-45 214 -114 0
-45 -214 114 0
46 216 116 0
46 -216 -116 0
-46 216 -116 0
-46 -216 116 0
47 217 117 0
47 -217 -117 0
-47 217 -117 0
-47 -217 117 0
48 226 126 0
48 -226 -126 0
-48 226 -126 0
-48 -226 126 0
49 230 130 0
49 -230 -130 0
-49 230 -130 0
-49 -230 130 0
50 234 134 0
50 -234 -134 0
-50 234 -134 0
-50 -234 134 0
51 236 136 0
51 -236 -136 0
-51 236 -136 0
-51 -236 136 0
52 237 137 0
52 -237 -137 0
-52 237 -137 0
-52 -237 137 0
53 246 146 0
53 -246 -146 0
-53 246 -146 0
-53 -246 146 0
54 250 150 0
54 -250 -150 0
-54 250 -150 0
-54 -250 150 0
55 254 154 0
55 -254 -154 0
-55 254 -154 0
-55 -254 154 0
56 256 156 0
56 -256 -156 0
-56 256 -156 0
-56 -256 156 0
57 257 157 0
57 -257 -157 0
-57 257 -157 0
-57 -257 157 0
58 66 -59 0
58 -66 59 0
-58 66 59 0
-58 -66 -59 0
-59 60 0
-59 76 0
59 -76 -60 0
60 77 0
-60 -77 0
61 70 -62 0
61 -70 62 0
-61 70 62 0
-61 -70 -62 0
-62 63 0
-62 77 0
62 -77 -63 0
63 66 0
-63 -66 0
64 74 -65 0
64 -74 65 0
-64 74 65 0
-64 -74 -65 0
-65 66 0
-65 67 0
65 -67 -66 0
67 70 0
-67 -70 0
68 76 -69 0
68 -76 69 0
-68 76 69 0
-68 -76 -69 0
-69 70 0
-69 71 0
69 -71 -70 0
71 74 0
-71 -74 0
72 77 -73 0
72 -77 73 0
-72 77 73 0
-72 -77 -73 0
-73 74 0
-73 75 0
73 -75 -74 0
75 76 0
-75 -76 0
78 86 -79 0
78 -86 79 0
-78 86 79 0
-78 -86 -79 0
-79 80 0
-79 96 0
79 -96 -80 0
80 97 0
-80 -97 0
81 90 -82 0
81 -90 82 0
-81 90 82 0
-81 -90 -82 0
-82 83 0
-82 97 0
82 -97 -83 0
83 86 0
-83 -86 0
84 94 -85 0
84 -94 85 0
-84 94 85 0
-84 -94 -85 0
-85 86 0
-85 87 0
85 -87 -86 0
87 90 0
-87 -90 0
88 96 -89 0
88 -96 89 0
-88 96 89 0
-88 -96 -89 0
-89 90 0
-89 91 0
89 -91 -90 0
91 94 0
-91 -94 0
92 97 -93 0
92 -97 93 0
-92 97 93 0
-92 -97 -93 0
-93 94 0
-93 95 0
93 -95 -94 0
95 96 0
-95 -96 0
98 106 -99 0
98 -106 99 0
-98 106 99 0
-98 -106 -99 0
-99 100 0
-99 116 0
99 -116 -100 0
100 117 0
-100 -117 0
101 110 -102 0
101 -110 102 0
-101 110 102 0
-101 -110 -102 0
-102 103 0
-102 117 0
102 -117 -103 0
103 106 0
-103 -106 0
104 114 -105 0
104 -114 105 0
-104 114 105 0
-104 -114 -105 0
-105 106 0
-105 107 0
105 -107 -106 0
107 110 0
-107 -110 0
108 116 -109 0
108 -116 109 0
-108 116 109 0
-108 -116 -109 0
-109 110 0
-109 111 0
109 -111 -110 0
111 114 0
-111 -114 0
112 117 -113 0
112 -117 113 0
-112 117 113 0
-112 -117 -113 0
-113 114 0
-113 115 0
113 -115 -114 0
115 116 0
-115 -116 0
118 126 -119 0
118 -126 119 0
-118 126 119 0
-118 -126 -119 0
-119 120 0
-119 136 0
119 -136 -120 0
120 137 0
-120 -137 0
121 130 -122 0
121 -130 122 0
-121 130 122 0
-121 -130 -122 0
-122 123 0
-122 137 0
122 -137 -123 0
123 126 0
-123 -126 0
124 134 -125 0
124 -134 125 0
-124 134 125 0
-124 -134 -125 0
-125 126 0
-125 127 0
125 -127 -126 0
127 130 0
-127 -130 0
128 136 -129 0
128 -136 129 0
-128 136 129 0
-128 -136 -129 0
-129 130 0
-129 131 0
129 -131 -130 0
131 134 0
-131 -134 0
132 137 -133 0
132 -137 133 0
-132 137 133 0
-132 -137 -133 0
-133 134 0
-133 135 0
133 -135 -134 0
135 136 0
-135 -136 0
138 146 -139 0
138 -146 139 0
-138 146 139 0
-138 -146 -139 0
-139 140 0
-139 156 0
139 -156 -140 0
140 157 0
-140 -157 0
141 150 -142 0
141 -150 142 0
-141 150 142 0
-141 -150 -142 0
-142 143 0
-142 157 0
142 -157 -143 0
143 146 0
-143 -146 0
144 154 -145 0
144 -154 145 0
-144 154 145 0
-144 -154 -145 0
-145 146 0
-145 147 0
145 -147 -146 0
147 150 0
-147 -150 0
148 156 -149 0
148 -156 149 0
-148 156 149 0
-148 -156 -149 0
-149 150 0
-149 151 0
149 -151 -150 0
151 154 0
-151 -154 0
152 157 -153 0
152 -157 153 0
-152 157 153 0
-152 -157 -153 0
-153 154 0
-153 155 0
153 -155 -154 0
155 156 0
-155 -156 0
158 166 -159 0
158 -166 159 0
-158 166 159 0
-158 -166 -159 0
-159 160 0
-159 176 0
159 -176 -160 0
160 177 0
-160 -177 0
161 170 -162 0
161 -170 162 0
-161 170 162 0
-161 -170 -162 0
-162 163 0
-162 177 0
162 -177 -163 0
163 166 0
-163 -166 0
164 174 -165 0
164 -174 165 0
-164 174 165 0
-164 -174 -165 0
-165 166 0
-165 167 0
165 -167 -166 0
167 170 0
-167 -170 0
168 176 -169 0
168 -176 169 0
-168 176 169 0
-168 -176 -169 0
-169 170 0
-169 171 0
169 -171 -170 0
171 174 0
-171 -174 0
172 177 -173 0
172 -177 173 0
-172 177 173 0
-172 -177 -173 0
-173 174 0
-173 175 0
173 -175 -174 0
175 176 0
-175 -176 0
178 186 -179 0
178 -186 179 0
-178 186 179 0
-178 -186 -179 0
-179 180 0
-179 196 0
179 -196 -180 0
180 197 0
-180 -197 0
181 190 -182 0
181 -190 182 0
-181 190 182 0
-181 -190 -182 0
-182 183 0
-182 197 0
182 -197 -183 0
183 186 0
-183 -186 0
184 194 -185 0
184 -194 185 0
-184 194 185 0
-184 -194 -185 0
-185 186 0
-185 187 0
185 -187 -186 0
187 190 0
-187 -190 0
188 196 -189 0
188 -196 189 0
-188 196 189 0
-188 -196 -189 0
-189 190 0
-189 191 0
189 -191 -190 0
191 194 0
-191 -194 0
192 197 -193 0
192 -197 193 0
-192 197 193 0
-192 -197 -193 0
-193 194 0
-193 195 0
193 -195 -194 0
195 196 0
-195 -196 0
198 206 -199 0
198 -206 199 0
-198 206 199 0
-198 -206 -199 0
-199 200 0
-199 216 0
199 -216 -200 0
200 217 0
-200 -217 0
201 210 -202 0
201 -210 202 0
-201 210 202 0
-201 -210 -202 0
-202 203 0
-202 217 0
202 -217 -203 0
203 206 0
-203 -206 0
204 214 -205 0
204 -214 205 0
-204 214 205 0
-204 -214 -205 0
-205 206 0
-205 207 0
205 -207 -206 0
207 210 0
-207 -210 0
208 216 -209 0
208 -216 209 0
-208 216 209 0
-208 -216 -209 0
-209 210 0
-209 211 0
209 -211 -210 0
211 214 0
-211 -214 0
212 217 -213 0
212 -217 213 0
-212 217 213 0
-212 -217 -213 0
-213 214 0
-213 215 0
213 -215 -214 0
215 216 0
-215 -216 0
218 226 -219 0
218 -226 219 0
-218 226 219 0
-218 -226 -219 0
-219 220 0
-219 236 0
219 -236 -220 0
220 237 0
-220 -237 0
221 230 -222 0
221 -230 222 0
-221 230 222 0
-221 -230 -222 0
-222 223 0
-222 237 0
222 -237 -223 0
223 226 0
-223 -226 0
224 234 -225 0
224 -234 225 0
-224 234 225 0
-224 -234 -225 0
-225 226 0
-225 227 0
225 -227 -226 0
227 230 0
-227 -230 0
228 236 -229 0
228 -236 229 0
-228 236 229 0
-228 -236 -229 0
-229 230 0
-229 231 0
229 -231 -230 0
231 234 0
-231 -234 0
232 237 -233 0
232 -237 233 0
-232 237 233 0
-232 -237 -233 0
-233 234 0
-233 235 0
233 -235 -234 0
235 236 0
-235 -236 0
238 246 -239 0
238 -246 239 0
-238 246 239 0
-238 -246 -239 0
-239 240 0
-239 256 0
239 -256 -240 0
240 257 0
-240 -257 0
241 250 -242 0
241 -250 242 0
-241 250 242 0
-241 -250 -242 0
-242 243 0
-242 257 0
242 -257 -243 0
243 246 0
-243 -246 0
244 254 -245 0
244 -254 245 0
-244 254 245 0
-244 -254 -245 0
-245 246 0
-245 247 0
245 -247 -246 0
247 250 0
-247 -250 0
248 256 -249 0
248 -256 249 0
-248 256 249 0
-248 -256 -249 0
-249 250 0
-249 251 0
249 -251 -250 0
251 254 0
-251 -254 0
252 257 -253 0
252 -257 253 0
-252 257 253 0
-252 -257 -253 0
-253 254 0
-253 255 0
253 -255 -254 0
255 256 0
-255 -256 0
